problems/VanDerWaerdenNumbers/VanDerWaerden-models/noch/O2/lingeling/model_3-k3l4n30-solution000001.eprime-solution
language ESSENCE' 1.0

letting p_PartitionAsSet_ExplicitR5_ExplicitVarSizeWithMarker_Marker be [5, 12, 13; int(1..3)]
letting p_PartitionAsSet_ExplicitR5_ExplicitVarSizeWithMarker_Values be
        [[11, 17, 19, 21, 27, 1, 1, 1, 1, 1, 1, 1, 1, 1, 1, 1, 1, 1, 1, 1, 1, 1, 1, 1, 1, 1, 1, 1, 1, 1; int(1..30)],
         [3, 4, 8, 9, 10, 15, 18, 24, 25, 26, 29, 30, 1, 1, 1, 1, 1, 1, 1, 1, 1, 1, 1, 1, 1, 1, 1, 1, 1, 1; int(1..30)],
         [1, 2, 5, 6, 7, 12, 13, 14, 16, 20, 22, 23, 28, 1, 1, 1, 1, 1, 1, 1, 1, 1, 1, 1, 1, 1, 1, 1, 1,
          1; int(1..30)]; int(1..3)]
