problems/VanDerWaerdenNumbers/VanDerWaerden-models/noch/O2/lingeling/model_3-k3l4n30-solution000001.solution
language Essence 1.3

letting p be
        partition({1, 2, 5, 6, 7, 12, 13, 14, 16, 20, 22, 23, 28}, {3, 4, 8, 9, 10, 15, 18, 24, 25, 26, 29, 30},
                  {11, 17, 19, 21, 27})
